
Gurobi 13.0.2 (win64) logging started Thu Jul 23 04:55:44 2026

Set parameter LogFile to value "E:\codes\ExactEBRP\results\gf_cplex_equivalent_gurobi_replica_round28\runs\stage1__moderate_seed4301__c3_replica__300s\external\native_logs\R.0.0.1.0.0.1.0.0_lp.gurobi.log"
Gurobi Optimizer version 13.0.2 build v13.0.2rc1 (win64 - Windows 10.0 (19045.2))

CPU model: 12th Gen Intel(R) Core(TM) i7-12700KF, instruction set [SSE2|AVX|AVX2]
Thread count: 12 physical cores, 20 logical processors, using up to 1 threads

Non-default parameters:
TimeLimit  2.3348399799999999e+02
MIPGap  0
MIPGapAbs  0
LogToConsole  0
Threads  1

Optimize a model with 11911 rows, 3376 columns and 67353 nonzeros (Min)
Model fingerprint: 0x28588d0c
Model has 21 linear objective coefficients
Coefficient statistics:
  Matrix range     [3e-03, 2e+04]
  Objective range  [8e-03, 1e+00]
  Bounds range     [3e-03, 5e+01]
  RHS range        [3e-03, 5e+04]

Presolve removed 568 rows and 104 columns
Presolve time: 0.04s
Presolved: 11343 rows, 3444 columns, 65191 nonzeros

Iteration    Objective       Primal Inf.    Dual Inf.      Time
       0    2.7109759e-03   1.138816e+02   0.000000e+00      0s

Extra simplex iterations after uncrush: 3
    1793    5.1267340e-03   0.000000e+00   0.000000e+00      0s

Solved in 1793 iterations and 0.15 seconds (0.43 work units)
Optimal objective  5.126734001e-03

User-callback calls 1944, time in user-callback 0.00 sec
